seed= 25072018 ;
N= 10 ;
M= 2 ;
F= 2 ;
K= 4 ;
T= 78 ;

p=[ 20 20 20 20 20 2 2 2 2 2 ];
r=[ 2 3 13 7 1 4 11 0 5 12 ];
d=[ 8 5 1 5 2 1 16 1 11 6 ];
s=[ 3 3 3 3 2 2 2 3 3 1 ];
w=[ 2 3 3 3 3 1 4 3 3 2 ];
f=[ 1 1 1 1 1 2 2 2 2 2 ];

e1=[ 10 10 10 10 10 10 10 10 10 10 10 10 10 10 10 10 10 10 10 10 10 10 10 10 10 10 10 10 10 10 10 10 10 10 10 10 10 10 10 8 8 8 8 8 8 8 8 8 8 8 8 8 8 8 8 8 8 8 8 8 8 8 8 8 8 8 8 8 8 8 8 8 8 8 8 8 8 8 ];
e2=[ 10 10 10 10 10 10 10 10 10 10 10 10 10 10 10 10 10 10 10 10 10 10 10 10 10 10 9 9 9 9 9 9 9 9 9 9 9 9 9 8 8 8 8 8 8 8 8 8 8 8 8 8 8 8 8 8 8 8 8 8 8 8 8 8 8 9 9 9 9 9 9 9 9 9 9 9 9 9 ];